SYSTEM  = MoTe2
NCORE   = 8

# SCAN + rVV10
METAGGA  = SCAN
LUSE_VDW = .TRUE.
BPARAM = 15.7
LASPH = .TRUE.

ENCUT   = 400
ALGO    = Normal
IBRION  = -1    
NSW     = 0     
POTIM   = 0.5   

EDIFF   = 1.0e-05
ISYM    = 0      
LREAL   = .FALSE.

ISMEAR  = 0      
SIGMA   = 0.05   

PREC    = Accurate
ADDGRID = .TRUE.  
                  
NWRITE  = 1       
LCHARG  = .TRUE.  
LWAVE   = .FALSE. 
