2H-MoTe2 bilayer w/out lithium
   1.00000000000000     
     3.5510000000000002    0.0000000000000000    0.0000000000000000
     0.0000000000000000    6.1490000000000000    0.0000000000000000
     0.0000000000000000    0.0000000000000000   35.0000000000000000
   Te   Mo
     8     4
Direct
  0.0000000000000000  0.6666873742791408  0.1606249590616072
  0.0000000000000000  0.6666638204037144  0.0588336570495280
  0.5000000000000000  0.1666691650400098  0.1606266134263803
  0.5000000000000000  0.1666782452301963  0.0588334169243318
  0.0000000000000000  0.3331266074926025  0.3797906186436635
  0.0000000000000000  0.3334910852866244  0.2778770504531763
  0.5000000000000000  0.8335140031045083  0.3798171420486883
  0.5000000000000000  0.8331872073753500  0.2778758845294154
  0.0000000000000000  0.0000227999347632  0.1096581297633445
  0.5000000000000000  0.5000241187800437  0.1096628316660661
  0.0000000000000000 -0.0001101062535547  0.3287239961539038
  0.5000000000000000  0.4999559719542437  0.3288546967013865
