2H-MoTe2 bilayer no Li                  
   1.00000000000000     
     3.5034496708598728    0.0000000000000000    0.0000000000000000
     0.0000000000000000    6.0680885042007437   -0.0000531293857641
     0.0000000000000000   -0.0003164992487052   33.2896769726612334
   Te   Mo
     8     4
Direct
  0.0000000000000000  0.6666135108738505  0.1639865115588004
 -0.0000000000000000  0.6665999277184423  0.0559964310637171
  0.5000000000000000  0.1666135108738505  0.1639865115588004
  0.5000000000000000  0.1665999277184422  0.0559964310637171
  0.0000000000000000  0.3334000721815561  0.3824791389362842
 -0.0000000000000000  0.3333864890261476  0.2744890584412010
  0.5000000000000000  0.8334000721815559  0.3824791389362842
  0.5000000000000000  0.8333864890261478  0.2744890584412010
  0.0000000000000000 -0.0000536085717316  0.1100446566059899
  0.5000000000000000  0.4999463914282684  0.1100446566059899
 -0.0000000000000000  0.0000536085717316  0.3284309133940114
  0.5000000000000000  0.5000536085717315  0.3284309133940114
 
  0.00000000E+00  0.00000000E+00  0.00000000E+00
  0.00000000E+00  0.00000000E+00  0.00000000E+00
  0.00000000E+00  0.00000000E+00  0.00000000E+00
  0.00000000E+00  0.00000000E+00  0.00000000E+00
  0.00000000E+00  0.00000000E+00  0.00000000E+00
  0.00000000E+00  0.00000000E+00  0.00000000E+00
  0.00000000E+00  0.00000000E+00  0.00000000E+00
  0.00000000E+00  0.00000000E+00  0.00000000E+00
  0.00000000E+00  0.00000000E+00  0.00000000E+00
  0.00000000E+00  0.00000000E+00  0.00000000E+00
  0.00000000E+00  0.00000000E+00  0.00000000E+00
  0.00000000E+00  0.00000000E+00  0.00000000E+00
