1Tp-MoTe2                               
   1.00000000000000     
    13.4970346818599083    0.0000001820349785    0.0000003033297941
     0.0000001092425903   12.7342645347350771    0.0357022735565859
     0.0000004348554985    0.0457482197698982   16.0560179190052210
   Te   Mo
    30    16
Direct
  0.6250000045439394  0.0478812695574489  0.6333479365120589
  0.3522453921732910  0.0527552338019585  0.6271289414712804
  0.8977546284125182  0.0527552312789880  0.6271289405375257
  0.1250000097471549  0.5531375878985596  0.6278186146078728
  0.6250000084671220  0.5492738836829575  0.6319918562079055
  0.3724240814677917  0.5493519435940772  0.6303151786678886
  0.8775759326332696  0.5493519461392556  0.6303151821987254
  0.1249999943506421  0.3765645725967498  0.4026976593897245
  0.6249999945248914  0.3721705809628804  0.4105643209267172
  0.3772001819508977  0.3743309502258142  0.4071492900332104
  0.8727998086022324  0.3743309497590581  0.4071492910955301
  0.1249999915176752  0.8701220416735018  0.3950879908315458
  0.3874478972015441  0.8766483158119037  0.4076099746966275
  0.8625520991971531  0.8766483198717206  0.4076099765328742
 -0.0028107996847450  0.1312475792559680  0.3627293691689982
  0.5009381782165864  0.1208378986322571  0.3730180745304743
  0.2528107832986213  0.1312475809223989  0.3627293720232391
  0.7490618050938339  0.1208378986316417  0.3730180753915087
 -0.0034641303183681  0.6274753549745201  0.3700426920268207
  0.5038334777054415  0.6347865940585153  0.3758471624049455
  0.2534641132441710  0.6274753537696492  0.3700426926801527
  0.7461665055887272  0.6347865957151037  0.3758471619556407
  0.0066200845204221  0.3010952933529725  0.5934316480857943
  0.4972624369521484  0.3027239740754311  0.5947578557473518
  0.2433799260202742  0.3010952900152062  0.5934316468331168
  0.7527375702744710  0.3027239750544768  0.5947578545162988
  0.0081258668018685  0.8109617587840138  0.5891092504453611
  0.4960753422528505  0.8073100720941662  0.5986562307262662
  0.2418741437447076  0.8109617557966461  0.5891092502101444
  0.7539246674634604  0.8073100740776920  0.5986562300426093
  0.1250000082372911  0.1692954643463011  0.4877228790755583
  0.6250000034331373  0.1752332114477030  0.4974050078063468
  0.3728136362829426  0.1802221029548894  0.4930248554331673
  0.8771863668017519  0.1802221068017335  0.4930248547020676
  0.1250000038612250  0.6784040199469473  0.4899957136354709
  0.6250000009655688  0.6856916988990683  0.5039193828576980
  0.3750212279838330  0.6820854438753245  0.4969994150731073
  0.8749787790527905  0.6820854472697501  0.4969994219802989
  0.0141944151750220  0.0025372492134481  0.4960845644962715
  0.4907106316268602  0.0027818369485009  0.5129446661120031
  0.2358055828533100  0.0025372549499729  0.4960845575046940
  0.7592893602272788  0.0027818247903550  0.5129446623455731
  0.0018664353248376  0.4965106085771776  0.5045876512011040
  0.4997543024765684  0.4989869447880232  0.5079283998474959
  0.2481335582733804  0.4965106092145830  0.5045876524034641
  0.7502456914596071  0.4989869429106873  0.5079284010274689
 
  0.00000000E+00  0.00000000E+00  0.00000000E+00
  0.00000000E+00  0.00000000E+00  0.00000000E+00
  0.00000000E+00  0.00000000E+00  0.00000000E+00
  0.00000000E+00  0.00000000E+00  0.00000000E+00
  0.00000000E+00  0.00000000E+00  0.00000000E+00
  0.00000000E+00  0.00000000E+00  0.00000000E+00
  0.00000000E+00  0.00000000E+00  0.00000000E+00
  0.00000000E+00  0.00000000E+00  0.00000000E+00
  0.00000000E+00  0.00000000E+00  0.00000000E+00
  0.00000000E+00  0.00000000E+00  0.00000000E+00
  0.00000000E+00  0.00000000E+00  0.00000000E+00
  0.00000000E+00  0.00000000E+00  0.00000000E+00
  0.00000000E+00  0.00000000E+00  0.00000000E+00
  0.00000000E+00  0.00000000E+00  0.00000000E+00
  0.00000000E+00  0.00000000E+00  0.00000000E+00
  0.00000000E+00  0.00000000E+00  0.00000000E+00
  0.00000000E+00  0.00000000E+00  0.00000000E+00
  0.00000000E+00  0.00000000E+00  0.00000000E+00
  0.00000000E+00  0.00000000E+00  0.00000000E+00
  0.00000000E+00  0.00000000E+00  0.00000000E+00
  0.00000000E+00  0.00000000E+00  0.00000000E+00
  0.00000000E+00  0.00000000E+00  0.00000000E+00
  0.00000000E+00  0.00000000E+00  0.00000000E+00
  0.00000000E+00  0.00000000E+00  0.00000000E+00
  0.00000000E+00  0.00000000E+00  0.00000000E+00
  0.00000000E+00  0.00000000E+00  0.00000000E+00
  0.00000000E+00  0.00000000E+00  0.00000000E+00
  0.00000000E+00  0.00000000E+00  0.00000000E+00
  0.00000000E+00  0.00000000E+00  0.00000000E+00
  0.00000000E+00  0.00000000E+00  0.00000000E+00
  0.00000000E+00  0.00000000E+00  0.00000000E+00
  0.00000000E+00  0.00000000E+00  0.00000000E+00
  0.00000000E+00  0.00000000E+00  0.00000000E+00
  0.00000000E+00  0.00000000E+00  0.00000000E+00
  0.00000000E+00  0.00000000E+00  0.00000000E+00
  0.00000000E+00  0.00000000E+00  0.00000000E+00
  0.00000000E+00  0.00000000E+00  0.00000000E+00
  0.00000000E+00  0.00000000E+00  0.00000000E+00
  0.00000000E+00  0.00000000E+00  0.00000000E+00
  0.00000000E+00  0.00000000E+00  0.00000000E+00
  0.00000000E+00  0.00000000E+00  0.00000000E+00
  0.00000000E+00  0.00000000E+00  0.00000000E+00
  0.00000000E+00  0.00000000E+00  0.00000000E+00
  0.00000000E+00  0.00000000E+00  0.00000000E+00
  0.00000000E+00  0.00000000E+00  0.00000000E+00
  0.00000000E+00  0.00000000E+00  0.00000000E+00
