1Tp-MoTe2                               
   1.00000000000000     
    13.8079996108999996    0.0000000000000000    0.0000000000000000
     0.0000000000000000   12.7360000610000004    0.0000000000000000
     0.0000000000000000    0.0000000000000000   16.0000000000000000
   Te   Mo
    30    16
Direct
  0.6249999979553731  0.0471107984903483  0.6306876788746056
  0.3531028481215650  0.0530535379970741  0.6268755079134991
  0.8968971577043306  0.0530535376995832  0.6268754992366775
  0.1250000114116214  0.5524822632596419  0.6283486124063007
  0.6250000028540030  0.5476979505865280  0.6318423607948352
  0.3725168939902163  0.5486552172501944  0.6300693685373882
  0.8774831065449629  0.5486552165389535  0.6300693639471924
  0.1249999985235396  0.3760550872394895  0.4052869887333021
  0.6249999969603285  0.3727344261169574  0.4121036902273545
  0.3764718055974152  0.3749635563310751  0.4090921625964980
  0.8735282049356602  0.3749635676665082  0.4090921540540607
  0.1249999936362191  0.8700530938646280  0.3963304016652835
  0.3842921151148899  0.8769921962462266  0.4083125708110914
  0.8657078811774336  0.8769921985306843  0.4083125740265547
 -0.0018918474939422  0.1312042425634541  0.3637781834371303
  0.4997929044966019  0.1221339588452435  0.3730945660678061
  0.2518918651920288  0.1312042479761601  0.3637781693092177
  0.7502070982553932  0.1221339665102662  0.3730945609649145
 -0.0029037273899425  0.6274341294515362  0.3702316443498042
  0.5036755652037785  0.6354968090783065  0.3763234868723975
  0.2529037432447078  0.6274341321396653  0.3702316393868146
  0.7463244311938685  0.6354968089043703  0.3763234727064224
  0.0065152292918505  0.3012332410557199  0.5926532383100892
  0.4975907785295153  0.3024479758946219  0.5930317655064772
  0.2434847671902995  0.3012332496918767  0.5926532317777337
  0.7524092169153910  0.3024479743129692  0.5930317548842742
  0.0084708768736518  0.8103211197139487  0.5883152115344775
  0.4960661032707489  0.8072049686956699  0.5960548466127509
  0.2415291142265501  0.8103211340504752  0.5883152163416792
  0.7539338920135474  0.8072049709165718  0.5960548425653572
  0.1249999830466196  0.1694212999929138  0.4885350516691743
  0.6249999958066567  0.1750953213082282  0.4959295646526496
  0.3717917528164900  0.1805262049118845  0.4929351347924248
  0.8782082529167595  0.1805261940629567  0.4929351621417104
  0.1249999974376367  0.6773084294221350  0.4899896576214233
  0.6249999964977202  0.6837714681401282  0.5036052287286819
  0.3742022138370307  0.6808484442436689  0.4964143396406623
  0.8757977918135228  0.6808484319371445  0.4964143491449488
  0.0148971480077252  0.0027142246637505  0.4969973800287667
  0.4888355013049618  0.0036217927197005  0.5123760406534115
  0.2351028377717788  0.0027142050970762  0.4969973946491807
  0.7611644991561799  0.0036217892305080  0.5123760379492223
  0.0024181666147641  0.4973559581485156  0.5055070504145966
  0.4996991361790848  0.4994636737986333  0.5082487940674425
  0.2475818335117062  0.4973559467133851  0.5055070619758785
  0.7503008677397547  0.4994636809906196  0.5082487934178328
 
  0.00000000E+00  0.00000000E+00  0.00000000E+00
  0.00000000E+00  0.00000000E+00  0.00000000E+00
  0.00000000E+00  0.00000000E+00  0.00000000E+00
  0.00000000E+00  0.00000000E+00  0.00000000E+00
  0.00000000E+00  0.00000000E+00  0.00000000E+00
  0.00000000E+00  0.00000000E+00  0.00000000E+00
  0.00000000E+00  0.00000000E+00  0.00000000E+00
  0.00000000E+00  0.00000000E+00  0.00000000E+00
  0.00000000E+00  0.00000000E+00  0.00000000E+00
  0.00000000E+00  0.00000000E+00  0.00000000E+00
  0.00000000E+00  0.00000000E+00  0.00000000E+00
  0.00000000E+00  0.00000000E+00  0.00000000E+00
  0.00000000E+00  0.00000000E+00  0.00000000E+00
  0.00000000E+00  0.00000000E+00  0.00000000E+00
  0.00000000E+00  0.00000000E+00  0.00000000E+00
  0.00000000E+00  0.00000000E+00  0.00000000E+00
  0.00000000E+00  0.00000000E+00  0.00000000E+00
  0.00000000E+00  0.00000000E+00  0.00000000E+00
  0.00000000E+00  0.00000000E+00  0.00000000E+00
  0.00000000E+00  0.00000000E+00  0.00000000E+00
  0.00000000E+00  0.00000000E+00  0.00000000E+00
  0.00000000E+00  0.00000000E+00  0.00000000E+00
  0.00000000E+00  0.00000000E+00  0.00000000E+00
  0.00000000E+00  0.00000000E+00  0.00000000E+00
  0.00000000E+00  0.00000000E+00  0.00000000E+00
  0.00000000E+00  0.00000000E+00  0.00000000E+00
  0.00000000E+00  0.00000000E+00  0.00000000E+00
  0.00000000E+00  0.00000000E+00  0.00000000E+00
  0.00000000E+00  0.00000000E+00  0.00000000E+00
  0.00000000E+00  0.00000000E+00  0.00000000E+00
  0.00000000E+00  0.00000000E+00  0.00000000E+00
  0.00000000E+00  0.00000000E+00  0.00000000E+00
  0.00000000E+00  0.00000000E+00  0.00000000E+00
  0.00000000E+00  0.00000000E+00  0.00000000E+00
  0.00000000E+00  0.00000000E+00  0.00000000E+00
  0.00000000E+00  0.00000000E+00  0.00000000E+00
  0.00000000E+00  0.00000000E+00  0.00000000E+00
  0.00000000E+00  0.00000000E+00  0.00000000E+00
  0.00000000E+00  0.00000000E+00  0.00000000E+00
  0.00000000E+00  0.00000000E+00  0.00000000E+00
  0.00000000E+00  0.00000000E+00  0.00000000E+00
  0.00000000E+00  0.00000000E+00  0.00000000E+00
  0.00000000E+00  0.00000000E+00  0.00000000E+00
  0.00000000E+00  0.00000000E+00  0.00000000E+00
  0.00000000E+00  0.00000000E+00  0.00000000E+00
  0.00000000E+00  0.00000000E+00  0.00000000E+00
