1Tp-MoTe2
1.0
       13.8079996109         0.0000000000         0.0000000000
        0.0000000000        12.7360000610         0.0000000000
        0.0000000000         0.0000000000        16.0000000000
   Te   Mo
   30   16
Direct
     0.625000000         0.050816584         0.629133105
     0.375000000         0.050816584         0.629133105
     0.875000000         0.050816584         0.629133105
     0.125000000         0.550816596         0.629133105
     0.625000000         0.550816596         0.629133105
     0.375000000         0.550816596         0.629133105
     0.875000000         0.550816596         0.629133105
     0.125000000         0.374578357         0.407584369
     0.625000000         0.374578357         0.407584369
     0.375000000         0.374578357         0.407584369
     0.875000000         0.374578357         0.407584369
     0.125000000         0.874578357         0.407584369
     0.375000000         0.874578357         0.407584369
     0.875000000         0.874578357         0.407584369
     0.000000000         0.128705248         0.370865613
     0.500000000         0.128705248         0.370865613
     0.250000000         0.128705248         0.370865613
     0.750000000         0.128705248         0.370865613
     0.000000000         0.628705263         0.370865613
     0.500000000         0.628705263         0.370865613
     0.250000000         0.628705263         0.370865613
     0.750000000         0.628705263         0.370865613
     0.000000000         0.304940313         0.592416227
     0.500000000         0.304940313         0.592416227
     0.250000000         0.304940313         0.592416227
     0.750000000         0.304940313         0.592416227
     0.000000000         0.804940343         0.592416227
     0.500000000         0.804940343         0.592416227
     0.250000000         0.804940343         0.592416227
     0.750000000         0.804940343         0.592416227
     0.125000000         0.180298373         0.494067490
     0.625000000         0.180298373         0.494067490
     0.375000000         0.180298373         0.494067490
     0.875000000         0.180298373         0.494067490
     0.125000000         0.680298388         0.494067490
     0.625000000         0.680298388         0.494067490
     0.375000000         0.680298388         0.494067490
     0.875000000         0.680298388         0.494067490
     0.000000000         0.999219537         0.505933106
     0.500000000         0.999219537         0.505933106
     0.250000000         0.999219537         0.505933106
     0.750000000         0.999219537         0.505933106
     0.000000000         0.499219537         0.505933106
     0.500000000         0.499219537         0.505933106
     0.250000000         0.499219537         0.505933106
     0.750000000         0.499219537         0.505933106
