2H-MoTe2 bilayer with Li                
   1.00000000000000     
     3.5034496708598728    0.0000000000000000    0.0000000000000000
     0.0000000000000000    6.0680885042007437    0.0000000000000000
     0.0000000000000000    0.0000000000000000   35.0000000000000000
   Te   Mo   Li
     8     4     1
Direct
  0.0000000000000000  0.6666621229760850  0.1611405405128821
  0.0000000000000000  0.6666622974920884  0.0582002376491246
  0.5000000000000000  0.1666621229760850  0.1611405405128821
  0.5000000000000000  0.1666622974920884  0.0582002376491246
  0.0000000000000000  0.3333377024079098  0.3802753323508767
  0.0000000000000000  0.3333378769239133  0.2773350294871193
  0.5000000000000000  0.8333377024079098  0.3802753323508767
  0.5000000000000000  0.8333378769239133  0.2773350294871193
  0.0000000000000000  0.0000006583852112  0.1096146591064482
  0.5000000000000000  0.5000006583852112  0.1096146591064482
  0.0000000000000000  0.9999993416147888  0.3288609108935532
  0.5000000000000000  0.4999993416147888  0.3288609108935532
  0.5000000000000000  0.5000000000000000  0.3999999999999986
 
  0.00000000E+00  0.00000000E+00  0.00000000E+00
  0.00000000E+00  0.00000000E+00  0.00000000E+00
  0.00000000E+00  0.00000000E+00  0.00000000E+00
  0.00000000E+00  0.00000000E+00  0.00000000E+00
  0.00000000E+00  0.00000000E+00  0.00000000E+00
  0.00000000E+00  0.00000000E+00  0.00000000E+00
  0.00000000E+00  0.00000000E+00  0.00000000E+00
  0.00000000E+00  0.00000000E+00  0.00000000E+00
  0.00000000E+00  0.00000000E+00  0.00000000E+00
  0.00000000E+00  0.00000000E+00  0.00000000E+00
  0.00000000E+00  0.00000000E+00  0.00000000E+00
  0.00000000E+00  0.00000000E+00  0.00000000E+00
  0.00000000E+00  0.00000000E+00  0.00000000E+00
