2H-MoTe2 bilayer - no Li
 1.0
     3.5034496708598728    0.0000000000000000    0.0000000000000000
     0.0000000000000000    6.0680885042007437    0.0000000000000000
     0.0000000000000000    0.0000000000000000   35.0000000000000000   
Te Mo
  8  4
Direct
  0.0  0.6666666666  0.16132393 Te
  0.0  0.6666666666  0.05791385 Te
  0.5  0.1666666666  0.16132393 Te
  0.5  0.1666666666  0.05791385 Te
  0.0  0.3333333333  0.38056172 Te
  0.0  0.3333333333  0.27715164 Te
  0.5  0.8333333333  0.38056172 Te
  0.5  0.8333333333  0.27715164 Te
  0.0  0.0000000000  0.10961889 Mo
  0.5  0.5000000000  0.10961889 Mo
  0.0  0.0000000000  0.32885668 Mo
  0.5  0.5000000000  0.32885668 Mo
