1Tp-MoTe2                               
   1.00000000000000     
    13.5950720122202711   -0.0000066694889289    0.0000245571096243
    -0.0000061255837809   12.7446664324607699    0.0259628117648407
     0.0000288129711745    0.0331626066080385   15.9879134510767908
   Te   Mo
    31    16
Direct
  0.6249991635789593  0.0521471914573605  0.6327280782007294
  0.3575628039469256  0.0501858946168427  0.6258644740740125
  0.8924358997574503  0.0501858617694029  0.6258643458597632
  0.1249992730911725  0.5513928535509393  0.6296316921409365
  0.6249992801765270  0.5501811577555912  0.6330155622953467
  0.3721678991657612  0.5505675275022216  0.6309079427164869
  0.8778306266455850  0.5505674905402592  0.6309077789854995
  0.1250005490978281  0.3752522569346251  0.4039268469587494
  0.6250003654709694  0.3757073919053833  0.4094719598849578
  0.3764877919789500  0.3749086422012845  0.4076504945604948
  0.8735131490572107  0.3749087076784722  0.4076503991968322
  0.1250003169008609  0.8684566545222860  0.3978300001492794
  0.6250003816152442  0.8757130629099851  0.4103454514285733
  0.3757086908091641  0.8758636222770109  0.4086195479632888
  0.8742923902990586  0.8758637916938344  0.4086197220328093
 -0.0028855679719876  0.1305568665064504  0.3637578321917395
  0.5018545760549672  0.1260035786794326  0.3718475306480578
  0.2528871889291742  0.1305571439932688  0.3637575222705255
  0.7481467841633741  0.1260035646569459  0.3718475816813995
 -0.0014012022113678  0.6261729888529330  0.3702165121919926
  0.5001181398140948  0.6312023066453232  0.3747316218064355
  0.2514027079733615  0.6261728931945146  0.3702164152263152
  0.7498831910908647  0.6312023908131938  0.3747315811617599
  0.0056499558321554  0.3003102612128609  0.5927297758329347
  0.4969409696569735  0.3041084228630631  0.5946384071478386
  0.2443491431047382  0.3003103082070142  0.5927297907628906
  0.7530580348519421  0.3041084366396546  0.5946383038815872
  0.0078445783171792  0.8102222994392417  0.5910596458052764
  0.4971562634091069  0.8067197342775488  0.5966285861494945
  0.2421544574517314  0.8102222017869569  0.5910597362026058
  0.7528427590771736  0.8067197464755488  0.5966285109385371
  0.1249996865365248  0.1697639378895979  0.4879595868245427
  0.6249998891633396  0.1822605175354552  0.4970495018480844
  0.3743404689719201  0.1802107446769880  0.4925056471664703
  0.8756594016295142  0.1802106069748794  0.4925056146376199
  0.1249998839789285  0.6776846534779080  0.4917185387069966
  0.6249999041684877  0.6828699910200203  0.4990618925733107
  0.3718902599688166  0.6826767420431957  0.4969446468549393
  0.8781096195947115  0.6826767635682166  0.4969446058652159
  0.0131224465005126  0.0016508161646221  0.4979168200147895
  0.4987532644130380  0.0007090069108845  0.5089378439650597
  0.2368776322804531  0.0016507998215940  0.4979173284564080
  0.7512468492000475  0.0007089155110710  0.5089376871015693
  0.0025229540099462  0.4961908064195205  0.5054602976996565
  0.4994348472384458  0.4998503511075191  0.5086461507741356
  0.2474771262834488  0.4961907064491494  0.5054602632922959
  0.7505652049267162  0.4998503888699220  0.5086460988717533
 
  0.00000000E+00  0.00000000E+00  0.00000000E+00
  0.00000000E+00  0.00000000E+00  0.00000000E+00
  0.00000000E+00  0.00000000E+00  0.00000000E+00
  0.00000000E+00  0.00000000E+00  0.00000000E+00
  0.00000000E+00  0.00000000E+00  0.00000000E+00
  0.00000000E+00  0.00000000E+00  0.00000000E+00
  0.00000000E+00  0.00000000E+00  0.00000000E+00
  0.00000000E+00  0.00000000E+00  0.00000000E+00
  0.00000000E+00  0.00000000E+00  0.00000000E+00
  0.00000000E+00  0.00000000E+00  0.00000000E+00
  0.00000000E+00  0.00000000E+00  0.00000000E+00
  0.00000000E+00  0.00000000E+00  0.00000000E+00
  0.00000000E+00  0.00000000E+00  0.00000000E+00
  0.00000000E+00  0.00000000E+00  0.00000000E+00
  0.00000000E+00  0.00000000E+00  0.00000000E+00
  0.00000000E+00  0.00000000E+00  0.00000000E+00
  0.00000000E+00  0.00000000E+00  0.00000000E+00
  0.00000000E+00  0.00000000E+00  0.00000000E+00
  0.00000000E+00  0.00000000E+00  0.00000000E+00
  0.00000000E+00  0.00000000E+00  0.00000000E+00
  0.00000000E+00  0.00000000E+00  0.00000000E+00
  0.00000000E+00  0.00000000E+00  0.00000000E+00
  0.00000000E+00  0.00000000E+00  0.00000000E+00
  0.00000000E+00  0.00000000E+00  0.00000000E+00
  0.00000000E+00  0.00000000E+00  0.00000000E+00
  0.00000000E+00  0.00000000E+00  0.00000000E+00
  0.00000000E+00  0.00000000E+00  0.00000000E+00
  0.00000000E+00  0.00000000E+00  0.00000000E+00
  0.00000000E+00  0.00000000E+00  0.00000000E+00
  0.00000000E+00  0.00000000E+00  0.00000000E+00
  0.00000000E+00  0.00000000E+00  0.00000000E+00
  0.00000000E+00  0.00000000E+00  0.00000000E+00
  0.00000000E+00  0.00000000E+00  0.00000000E+00
  0.00000000E+00  0.00000000E+00  0.00000000E+00
  0.00000000E+00  0.00000000E+00  0.00000000E+00
  0.00000000E+00  0.00000000E+00  0.00000000E+00
  0.00000000E+00  0.00000000E+00  0.00000000E+00
  0.00000000E+00  0.00000000E+00  0.00000000E+00
  0.00000000E+00  0.00000000E+00  0.00000000E+00
  0.00000000E+00  0.00000000E+00  0.00000000E+00
  0.00000000E+00  0.00000000E+00  0.00000000E+00
  0.00000000E+00  0.00000000E+00  0.00000000E+00
  0.00000000E+00  0.00000000E+00  0.00000000E+00
  0.00000000E+00  0.00000000E+00  0.00000000E+00
  0.00000000E+00  0.00000000E+00  0.00000000E+00
  0.00000000E+00  0.00000000E+00  0.00000000E+00
  0.00000000E+00  0.00000000E+00  0.00000000E+00
