SYSTEM  = MoTe2
NCORE   = 8

# SCAN + rVV10
METAGGA  = SCAN
LUSE_VDW = .TRUE.
BPARAM = 15.7
LASPH = .TRUE.

ENCUT   = 400
ALGO    = Normal
IBRION  = 2
NSW     = 1000
ISIF    = 2
POTIM   = 0.5

EDIFF   = 1.0e-04
ISYM    = 2
LREAL   = .FALSE.

ISMEAR  = 0
SIGMA   = 0.05

PREC    = Accurate

NWRITE  = 1
LCHARG  = .TRUE.
LWAVE   = .FALSE.

LVTOT   = .TRUE.

# LDIPOL  = .TRUE.
# IDIPOL  = 3
