1Tp-MoTe2                               
   1.00000000000000     
    13.8079996108999996    0.0000000000000000    0.0000000000000000
     0.0000000000000000   12.7360000610000004    0.0000000000000000
     0.0000000000000000    0.0000000000000000   16.0000000000000000
   Te   Mo
    32    16
Direct
  0.1249999768497788  0.0508178304188729  0.6291205352843793
  0.6250000328175486  0.0508178193103901  0.6291204797698629
  0.3749999601491372  0.0508178176195362  0.6291205382020469
  0.8750000423581835  0.0508177860952870  0.6291205629159768
  0.1249999592709553  0.5508177847558834  0.6291205999963944
  0.6249999670843046  0.5508177059233045  0.6291205388179548
  0.3750000461608337  0.5508178056272974  0.6291204946306631
  0.8750000265826582  0.5508178109620094  0.6291205307598510
  0.1249999631348065  0.3745999868454584  0.4076189252448825
  0.6249999600165925  0.3745999998938915  0.4076189840126083
  0.3750000054411003  0.3746000065697568  0.4076189615127118
  0.8750000712933356  0.3746000368910660  0.4076189491505175
  0.1249999599861619  0.8745999876790946  0.4076189109759794
  0.6250000133015039  0.8746000789315842  0.4076189626683214
  0.3750000358284547  0.8746000031254401  0.4076189509067675
  0.8750000061719068  0.8745999871015708  0.4076189596484601
  0.0000000425760469  0.1287023390541685  0.3708804701080935
  0.5000000085719081  0.1287023699389284  0.3708805106315504
  0.2499999775984494  0.1287023315956408  0.3708805094078813
  0.7499999734635968  0.1287023215427459  0.3708805291468796
  0.0000000043103168  0.6287023377554617  0.3708804647305604
  0.4999999238302391  0.6287022928131198  0.3708805014784039
  0.2499999719751357  0.6287023763671198  0.3708804518041173
  0.7500001014984993  0.6287023256892410  0.3708804770441667
  0.0000000541064308  0.3049186258055516  0.5923816936473651
  0.4999999903767587  0.3049186103049771  0.5923816195677057
  0.2499999592100538  0.3049185622384876  0.5923816819652717
  0.7499999963391700  0.3049185749806220  0.5923816582239970
 -0.0000000311948560  0.8049186008155154  0.5923816974582521
  0.4999999833451924  0.8049186098549693  0.5923816612167245
  0.2500000130964803  0.8049185651194070  0.5923816623276320
  0.7500000384275919  0.8049185906713082  0.5923816332197351
  0.1250000064831000  0.1802871565680451  0.4940726266714446
  0.6250000177620842  0.1802872498970209  0.4940726344940286
  0.3749999665915305  0.1802872179921666  0.4940726114501334
  0.8750000004819115  0.1802871649656032  0.4940726268227874
  0.1250000162109883  0.6802871710103480  0.4940726323549177
  0.6249999802271049  0.6802871374568183  0.4940726400935132
  0.3749998932869935  0.6802871706776080  0.4940726495492819
  0.8750000995671566  0.6802871837938608  0.4940726409440815
  0.0000000604144180  0.9992325263984055  0.5059256302036176
  0.4999999550445366  0.9992324783241769  0.5059256375980118
  0.2499999186117748  0.9992325690028397  0.5059256151172550
  0.7500000437867225  0.9992324965732512  0.5059256147677229
 -0.0000000417480644  0.4992325689717375  0.5059256401167342
  0.5000000445003868  0.4992324845752558  0.5059256669249689
  0.2500000108256624  0.4992325837819078  0.5059256517179285
  0.7499999939754173  0.4992325417132460  0.5059256546978557
 
  0.00000000E+00  0.00000000E+00  0.00000000E+00
  0.00000000E+00  0.00000000E+00  0.00000000E+00
  0.00000000E+00  0.00000000E+00  0.00000000E+00
  0.00000000E+00  0.00000000E+00  0.00000000E+00
  0.00000000E+00  0.00000000E+00  0.00000000E+00
  0.00000000E+00  0.00000000E+00  0.00000000E+00
  0.00000000E+00  0.00000000E+00  0.00000000E+00
  0.00000000E+00  0.00000000E+00  0.00000000E+00
  0.00000000E+00  0.00000000E+00  0.00000000E+00
  0.00000000E+00  0.00000000E+00  0.00000000E+00
  0.00000000E+00  0.00000000E+00  0.00000000E+00
  0.00000000E+00  0.00000000E+00  0.00000000E+00
  0.00000000E+00  0.00000000E+00  0.00000000E+00
  0.00000000E+00  0.00000000E+00  0.00000000E+00
  0.00000000E+00  0.00000000E+00  0.00000000E+00
  0.00000000E+00  0.00000000E+00  0.00000000E+00
  0.00000000E+00  0.00000000E+00  0.00000000E+00
  0.00000000E+00  0.00000000E+00  0.00000000E+00
  0.00000000E+00  0.00000000E+00  0.00000000E+00
  0.00000000E+00  0.00000000E+00  0.00000000E+00
  0.00000000E+00  0.00000000E+00  0.00000000E+00
  0.00000000E+00  0.00000000E+00  0.00000000E+00
  0.00000000E+00  0.00000000E+00  0.00000000E+00
  0.00000000E+00  0.00000000E+00  0.00000000E+00
  0.00000000E+00  0.00000000E+00  0.00000000E+00
  0.00000000E+00  0.00000000E+00  0.00000000E+00
  0.00000000E+00  0.00000000E+00  0.00000000E+00
  0.00000000E+00  0.00000000E+00  0.00000000E+00
  0.00000000E+00  0.00000000E+00  0.00000000E+00
  0.00000000E+00  0.00000000E+00  0.00000000E+00
  0.00000000E+00  0.00000000E+00  0.00000000E+00
  0.00000000E+00  0.00000000E+00  0.00000000E+00
  0.00000000E+00  0.00000000E+00  0.00000000E+00
  0.00000000E+00  0.00000000E+00  0.00000000E+00
  0.00000000E+00  0.00000000E+00  0.00000000E+00
  0.00000000E+00  0.00000000E+00  0.00000000E+00
  0.00000000E+00  0.00000000E+00  0.00000000E+00
  0.00000000E+00  0.00000000E+00  0.00000000E+00
  0.00000000E+00  0.00000000E+00  0.00000000E+00
  0.00000000E+00  0.00000000E+00  0.00000000E+00
  0.00000000E+00  0.00000000E+00  0.00000000E+00
  0.00000000E+00  0.00000000E+00  0.00000000E+00
  0.00000000E+00  0.00000000E+00  0.00000000E+00
  0.00000000E+00  0.00000000E+00  0.00000000E+00
  0.00000000E+00  0.00000000E+00  0.00000000E+00
  0.00000000E+00  0.00000000E+00  0.00000000E+00
  0.00000000E+00  0.00000000E+00  0.00000000E+00
  0.00000000E+00  0.00000000E+00  0.00000000E+00
