1Tp-MoTe2                               
   1.00000000000000     
    13.8079996108999996    0.0000000000000000    0.0000000000000000
     0.0000000000000000   12.7360000610000004    0.0000000000000000
     0.0000000000000000    0.0000000000000000   16.0000000000000000
   Te   Mo
    32    16
Direct
  0.1249999768497787  0.0508178304188718  0.6291205352843789
  0.6250000328175460  0.0508178193103888  0.6291204797698597
  0.3749999601491396  0.0508178176195386  0.6291205382020451
  0.8750000423581810  0.0508177860952870  0.6291205629159791
  0.1249999592709585  0.5508177847558855  0.6291205999963978
  0.6249999670843067  0.5508177059233077  0.6291205388179577
  0.3750000461608352  0.5508178056272968  0.6291204946306621
  0.8750000265826614  0.5508178109620090  0.6291205307598489
  0.1249999631348047  0.3745999868454604  0.4076189252448827
  0.6249999600165950  0.3745999998938885  0.4076189840126077
  0.3750000054411018  0.3746000065697572  0.4076189615127106
  0.8750000712933357  0.3746000368910671  0.4076189491505176
  0.1249999599861624  0.8745999876790975  0.4076189109759767
  0.6250000133015021  0.8746000789315858  0.4076189626683231
  0.3750000358284566  0.8746000031254368  0.4076189509067660
  0.8750000061719092  0.8745999871015684  0.4076189596484596
  0.0000000425760476  0.1287023390541719  0.3708804701080908
  0.5000000085719094  0.1287023699389280  0.3708805106315509
  0.2499999775984492  0.1287023315956404  0.3708805094078826
  0.7499999734635949  0.1287023215427467  0.3708805291468806
  0.0000000043103157  0.6287023377554632  0.3708804647305612
  0.4999999238302379  0.6287022928131165  0.3708805014784033
  0.2499999719751358  0.6287023763671229  0.3708804518041191
  0.7500001014985003  0.6287023256892397  0.3708804770441674
  0.0000000541064296  0.3049186258055485  0.5923816936473685
  0.4999999903767574  0.3049186103049806  0.5923816195677034
  0.2499999592100508  0.3049185622384911  0.5923816819652714
  0.7499999963391701  0.3049185749806185  0.5923816582239994
  0.9999999688051417  0.8049186008155118  0.5923816974582508
  0.4999999833451909  0.8049186098549725  0.5923816612167272
  0.2500000130964821  0.8049185651194080  0.5923816623276323
  0.7500000384275936  0.8049185906713063  0.5923816332197376
  0.1250000064830985  0.1802871565680420  0.4940726266714464
  0.6250000177620834  0.1802872498970203  0.4940726344940316
  0.3749999665915311  0.1802872179921664  0.4940726114501359
  0.8750000004819114  0.1802871649656055  0.4940726268227849
  0.1250000162109899  0.6802871710103489  0.4940726323549143
  0.6249999802271020  0.6802871374568156  0.4940726400935134
  0.3749998932869900  0.6802871706776088  0.4940726495492811
  0.8750000995671599  0.6802871837938582  0.4940726409440828
  0.0000000604144148  0.9992325263984085  0.5059256302036204
  0.4999999550445366  0.9992324783241742  0.5059256375980112
  0.2499999186117776  0.9992325690028423  0.5059256151172562
  0.7500000437867200  0.9992324965732493  0.5059256147677260
  0.9999999582519337  0.4992325689717347  0.5059256401167360
  0.5000000445003892  0.4992324845752592  0.5059256669249663
  0.2500000108256657  0.4992325837819109  0.5059256517179307
  0.7499999939754147  0.4992325417132477  0.5059256546978546
 
  0.00000000E+00  0.00000000E+00  0.00000000E+00
  0.00000000E+00  0.00000000E+00  0.00000000E+00
  0.00000000E+00  0.00000000E+00  0.00000000E+00
  0.00000000E+00  0.00000000E+00  0.00000000E+00
  0.00000000E+00  0.00000000E+00  0.00000000E+00
  0.00000000E+00  0.00000000E+00  0.00000000E+00
  0.00000000E+00  0.00000000E+00  0.00000000E+00
  0.00000000E+00  0.00000000E+00  0.00000000E+00
  0.00000000E+00  0.00000000E+00  0.00000000E+00
  0.00000000E+00  0.00000000E+00  0.00000000E+00
  0.00000000E+00  0.00000000E+00  0.00000000E+00
  0.00000000E+00  0.00000000E+00  0.00000000E+00
  0.00000000E+00  0.00000000E+00  0.00000000E+00
  0.00000000E+00  0.00000000E+00  0.00000000E+00
  0.00000000E+00  0.00000000E+00  0.00000000E+00
  0.00000000E+00  0.00000000E+00  0.00000000E+00
  0.00000000E+00  0.00000000E+00  0.00000000E+00
  0.00000000E+00  0.00000000E+00  0.00000000E+00
  0.00000000E+00  0.00000000E+00  0.00000000E+00
  0.00000000E+00  0.00000000E+00  0.00000000E+00
  0.00000000E+00  0.00000000E+00  0.00000000E+00
  0.00000000E+00  0.00000000E+00  0.00000000E+00
  0.00000000E+00  0.00000000E+00  0.00000000E+00
  0.00000000E+00  0.00000000E+00  0.00000000E+00
  0.00000000E+00  0.00000000E+00  0.00000000E+00
  0.00000000E+00  0.00000000E+00  0.00000000E+00
  0.00000000E+00  0.00000000E+00  0.00000000E+00
  0.00000000E+00  0.00000000E+00  0.00000000E+00
  0.00000000E+00  0.00000000E+00  0.00000000E+00
  0.00000000E+00  0.00000000E+00  0.00000000E+00
  0.00000000E+00  0.00000000E+00  0.00000000E+00
  0.00000000E+00  0.00000000E+00  0.00000000E+00
  0.00000000E+00  0.00000000E+00  0.00000000E+00
  0.00000000E+00  0.00000000E+00  0.00000000E+00
  0.00000000E+00  0.00000000E+00  0.00000000E+00
  0.00000000E+00  0.00000000E+00  0.00000000E+00
  0.00000000E+00  0.00000000E+00  0.00000000E+00
  0.00000000E+00  0.00000000E+00  0.00000000E+00
  0.00000000E+00  0.00000000E+00  0.00000000E+00
  0.00000000E+00  0.00000000E+00  0.00000000E+00
  0.00000000E+00  0.00000000E+00  0.00000000E+00
  0.00000000E+00  0.00000000E+00  0.00000000E+00
  0.00000000E+00  0.00000000E+00  0.00000000E+00
  0.00000000E+00  0.00000000E+00  0.00000000E+00
  0.00000000E+00  0.00000000E+00  0.00000000E+00
  0.00000000E+00  0.00000000E+00  0.00000000E+00
  0.00000000E+00  0.00000000E+00  0.00000000E+00
  0.00000000E+00  0.00000000E+00  0.00000000E+00
