1Tp-MoTe2                               
   1.00000000000000     
    13.8079996108999996    0.0000000000000000    0.0000000000000000
     0.0000000000000000   12.7360000610000004    0.0000000000000000
     0.0000000000000000    0.0000000000000000   16.0000000000000000
   Te   Mo
    31    16
Direct
  0.6249999768468797  0.0525322908878962  0.6321948231960590
  0.3590269338779564  0.0498831248976046  0.6253301687058368
  0.8909730270070213  0.0498831303950737  0.6253301636110322
  0.1250000047531472  0.5510200526837181  0.6295963912310754
  0.6249999940102811  0.5502305586353202  0.6320738723453800
  0.3720335348617638  0.5504870467314547  0.6302824749768234
  0.8779664653514061  0.5504870241468751  0.6302824856441376
  0.1250000079170022  0.3746889084353171  0.4055445936954669
  0.6249999989648458  0.3761543536082499  0.4103556868285523
  0.3759046974738709  0.3751994451683913  0.4088784555340297
  0.8740952981563765  0.3751994479634391  0.4088784619326660
  0.1250000216528520  0.8689662858213723  0.3991207289693151
  0.6250000017514239  0.8761796886107192  0.4109199870069062
  0.3749661817293770  0.8764692341365006  0.4097921463343539
  0.8750338158252902  0.8764692290953207  0.4097921562009930
  0.9978185792092020  0.1295966480218382  0.3644687560200524
  0.5013903926274779  0.1264942794130874  0.3722991390872465
  0.2521814353593399  0.1295965866758948  0.3644687405768821
  0.7486096102911688  0.1264942895375469  0.3722991561198015
  0.9988340968819287  0.6265042352120247  0.3707159242245410
  0.4998009516013227  0.6312680661183805  0.3748897963366105
  0.2511659063946183  0.6265042260127274  0.3707159260623740
  0.7501990574673911  0.6312680535141411  0.3748897984273967
  0.0053239992043714  0.3001465796355660  0.5916537412997158
  0.4971792835901212  0.3039211559903876  0.5932214914678724
  0.2446760091164819  0.3001465943348549  0.5916537431812046
  0.7528207037927217  0.3039211550385232  0.5932215009903317
  0.0078218700767252  0.8098389211652162  0.5903670832334669
  0.4973763833170963  0.8063599172540137  0.5952935397088055
  0.2421781136350205  0.8098389581286582  0.5903670616877719
  0.7526236081728186  0.8063599197756943  0.5952935463923907
  0.1250000299056637  0.1700935124270302  0.4881995986563723
  0.6250000019754012  0.1816187359532364  0.4962928823539059
  0.3733037609040650  0.1796001033995864  0.4920514506493419
  0.8766962260628262  0.1796000919267939  0.4920514491420533
  0.1250000139694549  0.6770548736055346  0.4917252604395586
  0.6250000043419419  0.6822307562968462  0.4981135557334468
  0.3717425960831662  0.6821449336393428  0.4964910655596526
  0.8782573969937459  0.6821449324252384  0.4964910703261509
  0.0129121992727477  0.0019957986378003  0.4987912648757984
  0.4993051139043629  0.0011282533113857  0.5090644006365679
  0.2370878262651388  0.0019957963522401  0.4987912208807259
  0.7506948646940614  0.0011282721445980  0.5090644036178986
  0.0029611806624317  0.4969137746311958  0.5059829705374881
  0.4990613201370380  0.5004889865043651  0.5087905337435146
  0.2470388291918724  0.4969137894602724  0.5059829618697052
  0.7509386747187961  0.5004889822387213  0.5087905449487025
 
  0.00000000E+00  0.00000000E+00  0.00000000E+00
  0.00000000E+00  0.00000000E+00  0.00000000E+00
  0.00000000E+00  0.00000000E+00  0.00000000E+00
  0.00000000E+00  0.00000000E+00  0.00000000E+00
  0.00000000E+00  0.00000000E+00  0.00000000E+00
  0.00000000E+00  0.00000000E+00  0.00000000E+00
  0.00000000E+00  0.00000000E+00  0.00000000E+00
  0.00000000E+00  0.00000000E+00  0.00000000E+00
  0.00000000E+00  0.00000000E+00  0.00000000E+00
  0.00000000E+00  0.00000000E+00  0.00000000E+00
  0.00000000E+00  0.00000000E+00  0.00000000E+00
  0.00000000E+00  0.00000000E+00  0.00000000E+00
  0.00000000E+00  0.00000000E+00  0.00000000E+00
  0.00000000E+00  0.00000000E+00  0.00000000E+00
  0.00000000E+00  0.00000000E+00  0.00000000E+00
  0.00000000E+00  0.00000000E+00  0.00000000E+00
  0.00000000E+00  0.00000000E+00  0.00000000E+00
  0.00000000E+00  0.00000000E+00  0.00000000E+00
  0.00000000E+00  0.00000000E+00  0.00000000E+00
  0.00000000E+00  0.00000000E+00  0.00000000E+00
  0.00000000E+00  0.00000000E+00  0.00000000E+00
  0.00000000E+00  0.00000000E+00  0.00000000E+00
  0.00000000E+00  0.00000000E+00  0.00000000E+00
  0.00000000E+00  0.00000000E+00  0.00000000E+00
  0.00000000E+00  0.00000000E+00  0.00000000E+00
  0.00000000E+00  0.00000000E+00  0.00000000E+00
  0.00000000E+00  0.00000000E+00  0.00000000E+00
  0.00000000E+00  0.00000000E+00  0.00000000E+00
  0.00000000E+00  0.00000000E+00  0.00000000E+00
  0.00000000E+00  0.00000000E+00  0.00000000E+00
  0.00000000E+00  0.00000000E+00  0.00000000E+00
  0.00000000E+00  0.00000000E+00  0.00000000E+00
  0.00000000E+00  0.00000000E+00  0.00000000E+00
  0.00000000E+00  0.00000000E+00  0.00000000E+00
  0.00000000E+00  0.00000000E+00  0.00000000E+00
  0.00000000E+00  0.00000000E+00  0.00000000E+00
  0.00000000E+00  0.00000000E+00  0.00000000E+00
  0.00000000E+00  0.00000000E+00  0.00000000E+00
  0.00000000E+00  0.00000000E+00  0.00000000E+00
  0.00000000E+00  0.00000000E+00  0.00000000E+00
  0.00000000E+00  0.00000000E+00  0.00000000E+00
  0.00000000E+00  0.00000000E+00  0.00000000E+00
  0.00000000E+00  0.00000000E+00  0.00000000E+00
  0.00000000E+00  0.00000000E+00  0.00000000E+00
  0.00000000E+00  0.00000000E+00  0.00000000E+00
  0.00000000E+00  0.00000000E+00  0.00000000E+00
  0.00000000E+00  0.00000000E+00  0.00000000E+00
