1Tp-MoTe2                               
   1.00000000000000     
    13.8079996108999996    0.0000000000000000    0.0000000000000000
     0.0000000000000000   12.7360000610000004    0.0000000000000000
     0.0000000000000000    0.0000000000000000   16.0000000000000000
   Te   Mo
    31    16
Direct
  0.6249999768468784  0.0525322908878964  0.6321948231960618
  0.3590269338779555  0.0498831248976042  0.6253301687058336
  0.8909730270070200  0.0498831303950768  0.6253301636110353
  0.1250000047531506  0.5510200526837158  0.6295963912310755
  0.6249999940102782  0.5502305586353184  0.6320738723453811
  0.3720335348617627  0.5504870467314535  0.6302824749768224
  0.8779664653514097  0.5504870241468778  0.6302824856441392
  0.1250000079170042  0.3746889084353184  0.4055445936954697
  0.6249999989648426  0.3761543536082465  0.4103556868285509
  0.3759046974738716  0.3751994451683938  0.4088784555340275
  0.8740952981563791  0.3751994479634376  0.4088784619326664
  0.1250000216528511  0.8689662858213698  0.3991207289693145
  0.6250000017514246  0.8761796886107215  0.4109199870069093
  0.3749661817293787  0.8764692341365016  0.4097921463343545
  0.8750338158252907  0.8764692290953237  0.4097921562009911
 -0.0021814207908004  0.1295966480218393  0.3644687560200502
  0.5013903926274771  0.1264942794130888  0.3722991390872436
  0.2521814353593429  0.1295965866758977  0.3644687405768832
  0.7486096102911686  0.1264942895375488  0.3722991561198008
 -0.0011659031180737  0.6265042352120229  0.3707159242245389
  0.4998009516013258  0.6312680661183785  0.3748897963366087
  0.2511659063946215  0.6265042260127260  0.3707159260623761
  0.7501990574673887  0.6312680535141411  0.3748897984273942
  0.0053239992043697  0.3001465796355631  0.5916537412997174
  0.4971792835901185  0.3039211559903859  0.5932214914678697
  0.2446760091164810  0.3001465943348549  0.5916537431812022
  0.7528207037927228  0.3039211550385238  0.5932215009903308
  0.0078218700767222  0.8098389211652153  0.5903670832334693
  0.4973763833170972  0.8063599172540111  0.5952935397088090
  0.2421781136350176  0.8098389581286548  0.5903670616877702
  0.7526236081728205  0.8063599197756951  0.5952935463923873
  0.1250000299056623  0.1700935124270283  0.4881995986563754
  0.6250000019754024  0.1816187359532338  0.4962928823539094
  0.3733037609040627  0.1796001033995882  0.4920514506493454
  0.8766962260628252  0.1796000919267953  0.4920514491420568
  0.1250000139694543  0.6770548736055371  0.4917252604395601
  0.6250000043419384  0.6822307562968457  0.4981135557334488
  0.3717425960831673  0.6821449336393429  0.4964910655596561
  0.8782573969937486  0.6821449324252387  0.4964910703261511
  0.0129121992727468  0.0019957986378029  0.4987912648757963
  0.4993051139043607  0.0011282533113848  0.5090644006365702
  0.2370878262651362  0.0019957963522419  0.4987912208807281
  0.7506948646940613  0.0011282721445960  0.5090644036178965
  0.0029611806624298  0.4969137746311985  0.5059829705374913
  0.4990613201370412  0.5004889865043671  0.5087905337435147
  0.2470388291918691  0.4969137894602738  0.5059829618697061
  0.7509386747187953  0.5004889822387193  0.5087905449487049
 
  0.00000000E+00  0.00000000E+00  0.00000000E+00
  0.00000000E+00  0.00000000E+00  0.00000000E+00
  0.00000000E+00  0.00000000E+00  0.00000000E+00
  0.00000000E+00  0.00000000E+00  0.00000000E+00
  0.00000000E+00  0.00000000E+00  0.00000000E+00
  0.00000000E+00  0.00000000E+00  0.00000000E+00
  0.00000000E+00  0.00000000E+00  0.00000000E+00
  0.00000000E+00  0.00000000E+00  0.00000000E+00
  0.00000000E+00  0.00000000E+00  0.00000000E+00
  0.00000000E+00  0.00000000E+00  0.00000000E+00
  0.00000000E+00  0.00000000E+00  0.00000000E+00
  0.00000000E+00  0.00000000E+00  0.00000000E+00
  0.00000000E+00  0.00000000E+00  0.00000000E+00
  0.00000000E+00  0.00000000E+00  0.00000000E+00
  0.00000000E+00  0.00000000E+00  0.00000000E+00
  0.00000000E+00  0.00000000E+00  0.00000000E+00
  0.00000000E+00  0.00000000E+00  0.00000000E+00
  0.00000000E+00  0.00000000E+00  0.00000000E+00
  0.00000000E+00  0.00000000E+00  0.00000000E+00
  0.00000000E+00  0.00000000E+00  0.00000000E+00
  0.00000000E+00  0.00000000E+00  0.00000000E+00
  0.00000000E+00  0.00000000E+00  0.00000000E+00
  0.00000000E+00  0.00000000E+00  0.00000000E+00
  0.00000000E+00  0.00000000E+00  0.00000000E+00
  0.00000000E+00  0.00000000E+00  0.00000000E+00
  0.00000000E+00  0.00000000E+00  0.00000000E+00
  0.00000000E+00  0.00000000E+00  0.00000000E+00
  0.00000000E+00  0.00000000E+00  0.00000000E+00
  0.00000000E+00  0.00000000E+00  0.00000000E+00
  0.00000000E+00  0.00000000E+00  0.00000000E+00
  0.00000000E+00  0.00000000E+00  0.00000000E+00
  0.00000000E+00  0.00000000E+00  0.00000000E+00
  0.00000000E+00  0.00000000E+00  0.00000000E+00
  0.00000000E+00  0.00000000E+00  0.00000000E+00
  0.00000000E+00  0.00000000E+00  0.00000000E+00
  0.00000000E+00  0.00000000E+00  0.00000000E+00
  0.00000000E+00  0.00000000E+00  0.00000000E+00
  0.00000000E+00  0.00000000E+00  0.00000000E+00
  0.00000000E+00  0.00000000E+00  0.00000000E+00
  0.00000000E+00  0.00000000E+00  0.00000000E+00
  0.00000000E+00  0.00000000E+00  0.00000000E+00
  0.00000000E+00  0.00000000E+00  0.00000000E+00
  0.00000000E+00  0.00000000E+00  0.00000000E+00
  0.00000000E+00  0.00000000E+00  0.00000000E+00
  0.00000000E+00  0.00000000E+00  0.00000000E+00
  0.00000000E+00  0.00000000E+00  0.00000000E+00
  0.00000000E+00  0.00000000E+00  0.00000000E+00
