1Tp-MoTe2                               
   1.00000000000000     
    13.8079996108999996    0.0000000000000000    0.0000000000000000
     0.0000000000000000   12.7360000610000004    0.0000000000000000
     0.0000000000000000    0.0000000000000000   16.0000000000000000
   Te   Mo
    29    16
Direct
  0.6250801032565576  0.0447526581537616  0.6273206484855365
  0.3562627960400206  0.0555176054336073  0.6266140359344234
  0.8988282100551999  0.0503230356779270  0.6233049652788338
  0.1222667261603476  0.5509163053722190  0.6336285321238151
  0.6264725755720590  0.5486256441196176  0.6311463851906183
  0.3742154359498855  0.5463972226151910  0.6367791403148075
  0.8755550122642859  0.5493768349575348  0.6285214055532009
  0.1310732435834225  0.3818815849437058  0.4057559066341554
  0.6219645312968680  0.3733522108553444  0.4108542636190649
  0.3725298091375251  0.3801270556314833  0.4093424279528577
  0.8760771207738429  0.3755060875861247  0.4078044766494244
  0.1341452180386398  0.8646384943895384  0.3986650970618797
  0.3779480311161976  0.8718951478251071  0.4114200224318409
  0.8673509378165747  0.8756044188657910  0.4059452185923789
  0.0011548771516630  0.1315683849396549  0.3614677852701220
  0.4984154638513374  0.1205397501442960  0.3713229564359253
  0.2529909069295471  0.1320935064618141  0.3634802793276393
  0.7507998567921490  0.1234244954067520  0.3708185067057883
  0.0090739719955195  0.6291616893276455  0.3730051081644916
  0.4870592997537173  0.6363459095228521  0.3803535628520365
  0.7436560228240126  0.6354360886289001  0.3739072421339458
  0.0058138874347691  0.3004134138197969  0.5914485677791816
  0.4985625098199122  0.3014577406650361  0.5924667095167919
  0.2437736699807829  0.3012380102832850  0.5922392410038526
  0.7526200635513405  0.3010293954903460  0.5898014968878584
  0.0081616057082172  0.8084929508345766  0.5856661038047264
  0.4958339280023978  0.8059924955485656  0.5959165461346956
  0.2399843932568828  0.8161409764548893  0.5949194107190579
  0.7533445504662168  0.8058211667697535  0.5933375434141581
  0.1267846172918183  0.1706675309157717  0.4877268944108906
  0.6237172246932232  0.1739855987049239  0.4934202903583369
  0.3726251422561973  0.1823987793538677  0.4921724315165434
  0.8807868982362734  0.1794240162771530  0.4901248728303571
  0.1346602623924156  0.6746595368562325  0.4960500744503022
  0.6232071266463493  0.6821650570888238  0.5015076325720429
  0.3633967866208252  0.6800681885471320  0.5048935856427406
  0.8750667968300903  0.6789574844431243  0.4936112939688684
  0.0164915614248002  0.9995710171956134  0.4932754320091135
  0.4873122939621837  0.0005878144873606  0.5102607521795903
  0.2347683469672432  0.0064159596162554  0.4990556849461001
  0.7618229699078327  0.0028467789796025  0.5093786975110604
  0.0028720951646193  0.4980480135362981  0.5069177961170226
  0.4979049332736736  0.5003139716302130  0.5107001804714670
  0.2481665363834509  0.5079374204074014  0.5103555973881555
  0.7494016493691049  0.4982499312350939  0.5057113906542980
 
  0.00000000E+00  0.00000000E+00  0.00000000E+00
  0.00000000E+00  0.00000000E+00  0.00000000E+00
  0.00000000E+00  0.00000000E+00  0.00000000E+00
  0.00000000E+00  0.00000000E+00  0.00000000E+00
  0.00000000E+00  0.00000000E+00  0.00000000E+00
  0.00000000E+00  0.00000000E+00  0.00000000E+00
  0.00000000E+00  0.00000000E+00  0.00000000E+00
  0.00000000E+00  0.00000000E+00  0.00000000E+00
  0.00000000E+00  0.00000000E+00  0.00000000E+00
  0.00000000E+00  0.00000000E+00  0.00000000E+00
  0.00000000E+00  0.00000000E+00  0.00000000E+00
  0.00000000E+00  0.00000000E+00  0.00000000E+00
  0.00000000E+00  0.00000000E+00  0.00000000E+00
  0.00000000E+00  0.00000000E+00  0.00000000E+00
  0.00000000E+00  0.00000000E+00  0.00000000E+00
  0.00000000E+00  0.00000000E+00  0.00000000E+00
  0.00000000E+00  0.00000000E+00  0.00000000E+00
  0.00000000E+00  0.00000000E+00  0.00000000E+00
  0.00000000E+00  0.00000000E+00  0.00000000E+00
  0.00000000E+00  0.00000000E+00  0.00000000E+00
  0.00000000E+00  0.00000000E+00  0.00000000E+00
  0.00000000E+00  0.00000000E+00  0.00000000E+00
  0.00000000E+00  0.00000000E+00  0.00000000E+00
  0.00000000E+00  0.00000000E+00  0.00000000E+00
  0.00000000E+00  0.00000000E+00  0.00000000E+00
  0.00000000E+00  0.00000000E+00  0.00000000E+00
  0.00000000E+00  0.00000000E+00  0.00000000E+00
  0.00000000E+00  0.00000000E+00  0.00000000E+00
  0.00000000E+00  0.00000000E+00  0.00000000E+00
  0.00000000E+00  0.00000000E+00  0.00000000E+00
  0.00000000E+00  0.00000000E+00  0.00000000E+00
  0.00000000E+00  0.00000000E+00  0.00000000E+00
  0.00000000E+00  0.00000000E+00  0.00000000E+00
  0.00000000E+00  0.00000000E+00  0.00000000E+00
  0.00000000E+00  0.00000000E+00  0.00000000E+00
  0.00000000E+00  0.00000000E+00  0.00000000E+00
  0.00000000E+00  0.00000000E+00  0.00000000E+00
  0.00000000E+00  0.00000000E+00  0.00000000E+00
  0.00000000E+00  0.00000000E+00  0.00000000E+00
  0.00000000E+00  0.00000000E+00  0.00000000E+00
  0.00000000E+00  0.00000000E+00  0.00000000E+00
  0.00000000E+00  0.00000000E+00  0.00000000E+00
  0.00000000E+00  0.00000000E+00  0.00000000E+00
  0.00000000E+00  0.00000000E+00  0.00000000E+00
  0.00000000E+00  0.00000000E+00  0.00000000E+00
