2H-MoTe2 bilayer with Lithium           
   1.00000000000000     
     3.5510000000000002    0.0000000000000000    0.0000000000000000
     0.0000000000000000    6.1490000000000000    0.0000000000000000
     0.0000000000000000    0.0000000000000000   35.0000000000000000
   Te   Mo   Li
     8     4     1
Direct
  0.0000000000000000  0.6666873742791424  0.1606249590616073
  0.0000000000000000  0.6666638204037127  0.0588336570495258
  0.5000000000000000  0.1666691650400125  0.1606266134263805
  0.5000000000000000  0.1666782452301945  0.0588334169243296
  0.0000000000000000  0.3331266074926020  0.3797906186436606
  0.0000000000000000  0.3334910852866244  0.2778770504531778
  0.5000000000000000  0.8335140031045114  0.3798171420486867
  0.5000000000000000  0.8331872073753530  0.2778758845294149
  0.0000000000000000  0.0000227999347615  0.1096581297633463
  0.5000000000000000  0.5000241187800469  0.1096628316660642
  0.0000000000000000  0.9998898937464418  0.3287239961539044
  0.5000000000000000  0.4999559719542432  0.3288546967013843
  0.5000000000000000  0.5000897069723536  0.4996744235785187
 
  0.00000000E+00  0.00000000E+00  0.00000000E+00
  0.00000000E+00  0.00000000E+00  0.00000000E+00
  0.00000000E+00  0.00000000E+00  0.00000000E+00
  0.00000000E+00  0.00000000E+00  0.00000000E+00
  0.00000000E+00  0.00000000E+00  0.00000000E+00
  0.00000000E+00  0.00000000E+00  0.00000000E+00
  0.00000000E+00  0.00000000E+00  0.00000000E+00
  0.00000000E+00  0.00000000E+00  0.00000000E+00
  0.00000000E+00  0.00000000E+00  0.00000000E+00
  0.00000000E+00  0.00000000E+00  0.00000000E+00
  0.00000000E+00  0.00000000E+00  0.00000000E+00
  0.00000000E+00  0.00000000E+00  0.00000000E+00
  0.00000000E+00  0.00000000E+00  0.00000000E+00
