1Tp-MoTe2                               
   1.00000000000000     
    13.8079996108999996    0.0000000000000000    0.0000000000000000
     0.0000000000000000   12.7360000610000004    0.0000000000000000
     0.0000000000000000    0.0000000000000000   16.0000000000000000
   Te   Mo
    29    16
Direct
  0.6250801032565561  0.0447526581537619  0.6273206484855373
  0.3562627960400183  0.0555176054336104  0.6266140359344263
  0.8988282100551973  0.0503230356779275  0.6233049652788331
  0.1222667261603464  0.5509163053722177  0.6336285321238133
  0.6264725755720584  0.5486256441196194  0.6311463851906197
  0.3742154359498874  0.5463972226151889  0.6367791403148099
  0.8755550122642844  0.5493768349575319  0.6285214055531979
  0.1310732435834254  0.3818815849437078  0.4057559066341553
  0.6219645312968706  0.3733522108553463  0.4108542636190624
  0.3725298091375271  0.3801270556314856  0.4093424279528611
  0.8760771207738437  0.3755060875861275  0.4078044766494274
  0.1341452180386433  0.8646384943895405  0.3986650970618774
  0.3779480311161966  0.8718951478251040  0.4114200224318432
  0.8673509378165767  0.8756044188657924  0.4059452185923766
  0.0011548771516650  0.1315683849396576  0.3614677852701194
  0.4984154638513361  0.1205397501442980  0.3713229564359233
  0.2529909069295443  0.1320935064618120  0.3634802793276390
  0.7507998567921462  0.1234244954067502  0.3708185067057899
  0.0090739719955227  0.6291616893276480  0.3730051081644946
  0.4870592997537179  0.6363459095228551  0.3803535628520396
  0.7436560228240109  0.6354360886289002  0.3739072421339427
  0.0058138874347668  0.3004134138197950  0.5914485677791850
  0.4985625098199128  0.3014577406650349  0.5924667095167897
  0.2437736699807825  0.3012380102832836  0.5922392410038521
  0.7526200635513374  0.3010293954903444  0.5898014968878577
  0.0081616057082142  0.8084929508345753  0.5856661038047268
  0.4958339280023982  0.8059924955485690  0.5959165461346988
  0.2399843932568852  0.8161409764548927  0.5949194107190594
  0.7533445504662155  0.8058211667697555  0.5933375434141561
  0.1267846172918153  0.1706675309157723  0.4877268944108917
  0.6237172246932254  0.1739855987049207  0.4934202903583401
  0.3726251422561994  0.1823987793538711  0.4921724315165445
  0.8807868982362752  0.1794240162771550  0.4901248728303548
  0.1346602623924138  0.6746595368562298  0.4960500744503006
  0.6232071266463504  0.6821650570888207  0.5015076325720401
  0.3633967866208287  0.6800681885471342  0.5048935856427393
  0.8750667968300906  0.6789574844431236  0.4936112939688704
  0.0164915614248002 -0.0004289828043900  0.4932754320091132
  0.4873122939621870  0.0005878144873591  0.5102607521795886
  0.2347683469672464  0.0064159596162535  0.4990556849460975
  0.7618229699078294  0.0028467789796031  0.5093786975110600
  0.0028720951646223  0.4980480135363006  0.5069177961170196
  0.4979049332736757  0.5003139716302152  0.5107001804714687
  0.2481665363834484  0.5079374204074014  0.5103555973881568
  0.7494016493691036  0.4982499312350930  0.5057113906542972
 
  0.00000000E+00  0.00000000E+00  0.00000000E+00
  0.00000000E+00  0.00000000E+00  0.00000000E+00
  0.00000000E+00  0.00000000E+00  0.00000000E+00
  0.00000000E+00  0.00000000E+00  0.00000000E+00
  0.00000000E+00  0.00000000E+00  0.00000000E+00
  0.00000000E+00  0.00000000E+00  0.00000000E+00
  0.00000000E+00  0.00000000E+00  0.00000000E+00
  0.00000000E+00  0.00000000E+00  0.00000000E+00
  0.00000000E+00  0.00000000E+00  0.00000000E+00
  0.00000000E+00  0.00000000E+00  0.00000000E+00
  0.00000000E+00  0.00000000E+00  0.00000000E+00
  0.00000000E+00  0.00000000E+00  0.00000000E+00
  0.00000000E+00  0.00000000E+00  0.00000000E+00
  0.00000000E+00  0.00000000E+00  0.00000000E+00
  0.00000000E+00  0.00000000E+00  0.00000000E+00
  0.00000000E+00  0.00000000E+00  0.00000000E+00
  0.00000000E+00  0.00000000E+00  0.00000000E+00
  0.00000000E+00  0.00000000E+00  0.00000000E+00
  0.00000000E+00  0.00000000E+00  0.00000000E+00
  0.00000000E+00  0.00000000E+00  0.00000000E+00
  0.00000000E+00  0.00000000E+00  0.00000000E+00
  0.00000000E+00  0.00000000E+00  0.00000000E+00
  0.00000000E+00  0.00000000E+00  0.00000000E+00
  0.00000000E+00  0.00000000E+00  0.00000000E+00
  0.00000000E+00  0.00000000E+00  0.00000000E+00
  0.00000000E+00  0.00000000E+00  0.00000000E+00
  0.00000000E+00  0.00000000E+00  0.00000000E+00
  0.00000000E+00  0.00000000E+00  0.00000000E+00
  0.00000000E+00  0.00000000E+00  0.00000000E+00
  0.00000000E+00  0.00000000E+00  0.00000000E+00
  0.00000000E+00  0.00000000E+00  0.00000000E+00
  0.00000000E+00  0.00000000E+00  0.00000000E+00
  0.00000000E+00  0.00000000E+00  0.00000000E+00
  0.00000000E+00  0.00000000E+00  0.00000000E+00
  0.00000000E+00  0.00000000E+00  0.00000000E+00
  0.00000000E+00  0.00000000E+00  0.00000000E+00
  0.00000000E+00  0.00000000E+00  0.00000000E+00
  0.00000000E+00  0.00000000E+00  0.00000000E+00
  0.00000000E+00  0.00000000E+00  0.00000000E+00
  0.00000000E+00  0.00000000E+00  0.00000000E+00
  0.00000000E+00  0.00000000E+00  0.00000000E+00
  0.00000000E+00  0.00000000E+00  0.00000000E+00
  0.00000000E+00  0.00000000E+00  0.00000000E+00
  0.00000000E+00  0.00000000E+00  0.00000000E+00
  0.00000000E+00  0.00000000E+00  0.00000000E+00
