Lithium
   1.00000000000000     
     3.5510000000000002    0.0000000000000000    0.0000000000000000
     0.0000000000000000    6.1490000000000000    0.0000000000000000
     0.0000000000000000    0.0000000000000000   35.0000000000000000
  Li
     1
Direct
  0.5000000000000000  0.5000896999843044  0.4996744242702407
