1Tp-MoTe2                               
   1.00000000000000     
    13.8079996108999996    0.0000000000000000    0.0000000000000000
     0.0000000000000000   12.7360000610000004    0.0000000000000000
     0.0000000000000000    0.0000000000000000   16.0000000000000000
   Te   Mo
    30    16
Direct
  0.6249999979553706  0.0471107984903512  0.6306876788746081
  0.3531028481215657  0.0530535379970729  0.6268755079134962
  0.8968971577043305  0.0530535376995829  0.6268754992366752
  0.1250000114116219  0.5524822632596411  0.6283486124062989
  0.6250000028540015  0.5476979505865245  0.6318423607948347
  0.3725168939902161  0.5486552172501931  0.6300693685373915
  0.8774831065449646  0.5486552165389540  0.6300693639471930
  0.1249999985235419  0.3760550872394930  0.4052869887333017
  0.6249999969603266  0.3727344261169563  0.4121036902273545
  0.3764718055974186  0.3749635563310747  0.4090921625965009
  0.8735282049356599  0.3749635676665051  0.4090921540540577
  0.1249999936362158  0.8700530938646267  0.3963304016652813
  0.3842921151148886  0.8769921962462277  0.4083125708110913
  0.8657078811774355  0.8769921985306866  0.4083125740265530
  0.9981081525060560  0.1312042425634559  0.3637781834371339
  0.4997929044966014  0.1221339588452466  0.3730945660678060
  0.2518918651920288  0.1312042479761573  0.3637781693092208
  0.7502070982553946  0.1221339665102690  0.3730945609649154
  0.9970962726100581  0.6274341294515366  0.3702316443498077
  0.5036755652037783  0.6354968090783046  0.3763234868723941
  0.2529037432447083  0.6274341321396619  0.3702316393868159
  0.7463244311938695  0.6354968089043709  0.3763234727064244
  0.0065152292918498  0.3012332410557192  0.5926532383100920
  0.4975907785295135  0.3024479758946228  0.5930317655064741
  0.2434847671903029  0.3012332496918759  0.5926532317777315
  0.7524092169153889  0.3024479743129689  0.5930317548842723
  0.0084708768736519  0.8103211197139473  0.5883152115344785
  0.4960661032707492  0.8072049686956717  0.5960548466127520
  0.2415291142265517  0.8103211340504757  0.5883152163416767
  0.7539338920135492  0.8072049709165725  0.5960548425653585
  0.1249999830466209  0.1694212999929121  0.4885350516691744
  0.6249999958066539  0.1750953213082269  0.4959295646526485
  0.3717917528164918  0.1805262049118852  0.4929351347924253
  0.8782082529167567  0.1805261940629563  0.4929351621417126
  0.1249999974376337  0.6773084294221334  0.4899896576214218
  0.6249999964977206  0.6837714681401295  0.5036052287286807
  0.3742022138370302  0.6808484442436722  0.4964143396406655
  0.8757977918135254  0.6808484319371431  0.4964143491449491
  0.0148971480077265  0.0027142246637482  0.4969973800287661
  0.4888355013049619  0.0036217927196986  0.5123760406534146
  0.2351028377717768  0.0027142050970781  0.4969973946491777
  0.7611644991561803  0.0036217892305075  0.5123760379492239
  0.0024181666147669  0.4973559581485176  0.5055070504145931
  0.4996991361790819  0.4994636737986298  0.5082487940674412
  0.2475818335117097  0.4973559467133839  0.5055070619758766
  0.7503008677397531  0.4994636809906225  0.5082487934178346
 
  0.00000000E+00  0.00000000E+00  0.00000000E+00
  0.00000000E+00  0.00000000E+00  0.00000000E+00
  0.00000000E+00  0.00000000E+00  0.00000000E+00
  0.00000000E+00  0.00000000E+00  0.00000000E+00
  0.00000000E+00  0.00000000E+00  0.00000000E+00
  0.00000000E+00  0.00000000E+00  0.00000000E+00
  0.00000000E+00  0.00000000E+00  0.00000000E+00
  0.00000000E+00  0.00000000E+00  0.00000000E+00
  0.00000000E+00  0.00000000E+00  0.00000000E+00
  0.00000000E+00  0.00000000E+00  0.00000000E+00
  0.00000000E+00  0.00000000E+00  0.00000000E+00
  0.00000000E+00  0.00000000E+00  0.00000000E+00
  0.00000000E+00  0.00000000E+00  0.00000000E+00
  0.00000000E+00  0.00000000E+00  0.00000000E+00
  0.00000000E+00  0.00000000E+00  0.00000000E+00
  0.00000000E+00  0.00000000E+00  0.00000000E+00
  0.00000000E+00  0.00000000E+00  0.00000000E+00
  0.00000000E+00  0.00000000E+00  0.00000000E+00
  0.00000000E+00  0.00000000E+00  0.00000000E+00
  0.00000000E+00  0.00000000E+00  0.00000000E+00
  0.00000000E+00  0.00000000E+00  0.00000000E+00
  0.00000000E+00  0.00000000E+00  0.00000000E+00
  0.00000000E+00  0.00000000E+00  0.00000000E+00
  0.00000000E+00  0.00000000E+00  0.00000000E+00
  0.00000000E+00  0.00000000E+00  0.00000000E+00
  0.00000000E+00  0.00000000E+00  0.00000000E+00
  0.00000000E+00  0.00000000E+00  0.00000000E+00
  0.00000000E+00  0.00000000E+00  0.00000000E+00
  0.00000000E+00  0.00000000E+00  0.00000000E+00
  0.00000000E+00  0.00000000E+00  0.00000000E+00
  0.00000000E+00  0.00000000E+00  0.00000000E+00
  0.00000000E+00  0.00000000E+00  0.00000000E+00
  0.00000000E+00  0.00000000E+00  0.00000000E+00
  0.00000000E+00  0.00000000E+00  0.00000000E+00
  0.00000000E+00  0.00000000E+00  0.00000000E+00
  0.00000000E+00  0.00000000E+00  0.00000000E+00
  0.00000000E+00  0.00000000E+00  0.00000000E+00
  0.00000000E+00  0.00000000E+00  0.00000000E+00
  0.00000000E+00  0.00000000E+00  0.00000000E+00
  0.00000000E+00  0.00000000E+00  0.00000000E+00
  0.00000000E+00  0.00000000E+00  0.00000000E+00
  0.00000000E+00  0.00000000E+00  0.00000000E+00
  0.00000000E+00  0.00000000E+00  0.00000000E+00
  0.00000000E+00  0.00000000E+00  0.00000000E+00
  0.00000000E+00  0.00000000E+00  0.00000000E+00
  0.00000000E+00  0.00000000E+00  0.00000000E+00
